321,46
269,107
200,161
317,142
411,406
584,476
663,463
655,419
609,458
611,503
755,634
773,691
994,507
918,443
738,388
427,660
411,406
898,-21
663,463
491,780
694,380
792,64
586,219
639,364
586,219
644,169
1036,350
721,486
657,389
639,364
694,380
487,265
427,152
450,-48
321,46
317,142
427,152
657,389
655,419
755,634
742,791
611,503
